%chk=016_omol20xC_hvaLE30_fc15_g106139_batch_0041_n060_f006741_center006_C_C12H36O12.chk
%nproc=16
%mem=100GB
#P wb97xd/6-31G** nosymm stable=(opt,xqc)

C12H36O12 omol_c20x_hva_le30 g106139 center0=6 hva=24 frame_max_absFcomp=2.201026

0 1
C  -0.853400 -16.081280  16.290580
C   0.270000 -15.552460  17.249730
C   3.053250 -18.828530  19.634500
C   3.187900 -17.486240  18.861260
C   5.813880 -19.003120  15.734240
C   4.816090 -18.021850  15.079460
C   5.459430 -24.557710  14.744790
C   5.173960 -23.431880  15.705340
C   0.805590 -19.276170  16.012640
C   1.403040 -20.654500  15.897480
C  -2.371300 -21.066850  15.672980
C  -2.156740 -21.942320  16.963210
H  -1.732730 -15.437740  16.263400
H  -1.232670 -17.063040  16.574120
H   1.051510 -16.311590  17.216980
H  -0.092750 -15.559930  18.277570
H   0.910090 -14.170290  16.101580
H   0.140710 -16.894280  14.828620
H   3.412380 -18.573990  20.631660
H   3.765360 -19.610910  19.372080
H   2.536540 -16.738630  19.313930
H   2.920500 -17.505860  17.804760
H   4.661880 -16.704740  19.895490
H   1.493590 -19.149420  20.652440
H   6.727620 -18.485490  16.026160
H   6.240590 -19.668610  14.983810
H   5.280980 -17.373100  14.337100
H   4.437830 -17.332170  15.834010
H   4.063140 -19.525550  14.029840
H   4.395840 -19.837500  16.652250
H   5.042820 -25.540330  14.966150
H   6.528780 -24.705600  14.895550
H   5.722690 -22.541600  15.398110
H   5.535220 -23.765090  16.678260
H   3.242380 -23.949130  15.785160
H   5.653120 -24.523880  12.650800
H   1.015740 -18.798630  16.969660
H  -0.279020 -19.384390  16.012410
H   1.322030 -21.094350  14.903470
H   0.760010 -21.233600  16.560260
H   3.023910 -21.635590  16.322380
H   2.035860 -18.424300  14.760150
H  -1.507130 -21.106560  15.009850
H  -2.402560 -20.007520  15.927770
H  -3.092330 -21.918170  17.521960
H  -1.394440 -21.542980  17.632190
H  -1.776750 -23.848740  17.279080
H  -3.825260 -22.284890  15.156010
O   0.602650 -14.184420  17.010910
O  -0.281480 -16.043270  14.966950
O   4.545680 -17.098310  19.027620
O   1.663450 -19.111740  19.708340
O   3.776020 -18.688230  14.401410
O   5.306380 -19.673940  16.908700
O   3.781090 -23.156250  15.732790
O   5.246520 -24.078750  13.397880
O   2.728760 -20.730640  16.447110
O   1.096430 -18.442820  14.956950
O  -1.763980 -23.260860  16.520250
O  -3.665440 -21.342240  15.069610


--link1--
%chk=016_omol20xC_hvaLE30_fc15_g106139_batch_0041_n060_f006741_center006_C_C12H36O12.chk
%nproc=16
%mem=100GB
#P wb97xd/6-31G** nosymm guess=read geom=check force

C12H36O12 omol_c20x_hva_le30 g106139 center0=6 hva=24 frame_max_absFcomp=2.201026

0 1



